c Generated map
c Size: 8 * 8, weights in range: 1 to 10, walls: True, with ratio 0.05
c dim 2 of 8
c
p sp 64 103
c graph contains 64 nodes and 103 arcs
c
a 1 2 3
a 2 1 3
a 2 10 1
a 10 2 1
a 2 3 9
a 3 2 9
a 3 11 1
a 11 3 1
a 3 4 3
a 4 3 3
a 4 12 2
a 12 4 2
a 4 5 8
a 5 4 8
a 5 13 9
a 13 5 9
a 5 6 7
a 6 5 7
a 6 14 4
a 14 6 4
a 6 7 1
a 7 6 1
a 7 15 8
a 15 7 8
a 7 8 1
a 8 7 1
a 10 18 8
a 18 10 8
a 10 11 2
a 11 10 2
a 11 19 5
a 19 11 5
a 11 12 4
a 12 11 4
a 12 20 9
a 20 12 9
a 12 13 1
a 13 12 1
a 13 21 7
a 21 13 7
a 13 14 2
a 14 13 2
a 14 22 3
a 22 14 3
a 14 15 6
a 15 14 6
a 15 23 1
a 23 15 1
a 17 25 9
a 25 17 9
a 17 18 6
a 18 17 6
a 18 26 3
a 26 18 3
a 18 19 7
a 19 18 7
a 19 27 6
a 27 19 6
a 19 20 5
a 20 19 5
a 20 28 7
a 28 20 7
a 20 21 4
a 21 20 4
a 21 29 7
a 29 21 7
a 21 22 4
a 22 21 4
a 22 30 10
a 30 22 10
a 22 23 4
a 23 22 4
a 23 31 9
a 31 23 9
a 23 24 3
a 24 23 3
a 24 32 10
a 32 24 10
a 25 33 7
a 33 25 7
a 25 26 6
a 26 25 6
a 26 34 6
a 34 26 6
a 26 27 6
a 27 26 6
a 27 35 6
a 35 27 6
a 27 28 8
a 28 27 8
a 28 36 7
a 36 28 7
a 28 29 10
a 29 28 10
a 29 37 2
a 37 29 2
a 29 30 8
a 30 29 8
a 30 38 8
a 38 30 8
a 30 31 5
a 31 30 5
a 31 39 1
a 39 31 1
a 31 32 1
a 32 31 1
a 33 41 9
a 41 33 9
a 33 34 4
a 34 33 4
a 34 42 3
a 42 34 3
a 34 35 4
a 35 34 4
a 35 43 1
a 43 35 1
a 35 36 9
a 36 35 9
a 36 44 7
a 44 36 7
a 36 37 5
a 37 36 5
a 37 45 2
a 45 37 2
a 37 38 7
a 38 37 7
a 38 46 2
a 46 38 2
a 38 39 7
a 39 38 7
a 39 47 5
a 47 39 5
a 41 49 1
a 49 41 1
a 41 42 8
a 42 41 8
a 42 50 9
a 50 42 9
a 42 43 6
a 43 42 6
a 43 51 5
a 51 43 5
a 43 44 10
a 44 43 10
a 44 52 10
a 52 44 10
a 44 45 3
a 45 44 3
a 45 53 7
a 53 45 7
a 45 46 3
a 46 45 3
a 46 54 5
a 54 46 5
a 46 47 1
a 47 46 1
a 47 55 10
a 55 47 10
a 47 48 3
a 48 47 3
a 48 56 8
a 56 48 8
a 49 57 2
a 57 49 2
a 49 50 5
a 50 49 5
a 50 58 10
a 58 50 10
a 50 51 9
a 51 50 9
a 51 59 9
a 59 51 9
a 51 52 9
a 52 51 9
a 52 60 2
a 60 52 2
a 52 53 7
a 53 52 7
a 53 61 4
a 61 53 4
a 53 54 9
a 54 53 9
a 54 62 10
a 62 54 10
a 54 55 10
a 55 54 10
a 55 63 1
a 63 55 1
a 55 56 9
a 56 55 9
a 56 64 2
a 64 56 2
a 57 58 5
a 58 57 5
a 58 59 10
a 59 58 10
a 59 60 4
a 60 59 4
a 60 61 4
a 61 60 4
a 61 62 5
a 62 61 5
a 62 63 7
a 63 62 7
a 63 64 7
a 64 63 7
